1592
47 42 63 55 32 50 2 24 64 36 4 38 81 57 76 86 6 78 90 15 72 92 73 79 35 77 8 82 9 67 66 71 93 61 39 89 1 46 91 7 83 22 25 69 18 31 85 74 27 10 28 75 87 11 48 84 12 51 30 68 62 65 60 14 40 26 21 19 43 23 17 33 56 41 34 96 5 70 95 29 88 97 20 13 3 80 59 37 58 52 45 53 94 98 44 49 99 16 54 
